% seed = 0

mint = 25;
% maxt = 65;

nActs = 32;
dur = [0,2,2,1,1,3,3,1,1,2,3,2,2,2,2,4,3,3,2,4,1,3,2,3,3,1,2,2,1,2,2,0];

nSkills = 9;
sreq = [| 0,0,0,0,0,0,0,0,0,
	| 0,1,1,0,0,0,0,0,0,
	| 0,0,1,1,0,0,1,0,0,
	| 0,0,1,0,0,0,1,0,0,
	| 0,0,0,0,0,1,2,0,1,
	| 1,0,0,0,0,1,0,0,0,
	| 0,0,1,0,0,0,0,1,0,
	| 0,0,1,0,0,0,0,0,0,
	| 0,0,2,0,0,0,0,0,0,
	| 0,0,1,0,1,1,0,2,0,
	| 0,0,1,0,1,1,0,2,0,
	| 0,0,0,1,0,1,0,0,0,
	| 0,0,0,0,0,1,1,0,0,
	| 0,0,1,0,0,0,0,0,0,
	| 0,0,0,0,1,1,1,1,0,
	| 0,0,1,0,0,0,0,2,0,
	| 0,0,1,0,1,0,1,0,0,
	| 0,0,1,0,0,0,0,0,0,
	| 0,0,1,1,0,0,1,1,0,
	| 0,0,0,1,0,0,0,1,0,
	| 0,0,0,0,0,1,0,0,0,
	| 0,0,0,0,0,0,1,1,0,
	| 0,0,0,0,0,0,1,0,0,
	| 0,0,0,0,0,1,0,1,0,
	| 0,0,1,0,0,0,2,1,0,
	| 0,0,0,1,0,1,0,0,0,
	| 0,0,0,1,0,0,1,0,0,
	| 0,0,1,0,2,0,0,0,0,
	| 0,0,1,0,1,0,0,2,0,
	| 0,0,0,0,0,1,1,1,0,
	| 0,0,1,1,1,1,0,0,0,
	| 0,0,0,0,0,0,0,0,0, |];

% SumOfsreq = 78;

nResources = 15;
mastery = [| false,false,true,false,false,false,false,false,false,
	| false,false,true,false,false,false,false,false,false,
	| false,false,false,false,true,true,false,false,false,
	| false,false,false,false,false,false,true,true,true,
	| false,false,false,false,false,true,false,false,false,
	| false,false,true,false,false,false,false,false,false,
	| false,false,false,true,true,true,false,false,true,
	| false,false,false,false,false,false,true,true,true,
	| true,true,true,false,false,false,true,true,true,
	| false,false,false,true,true,true,false,false,false,
	| false,false,false,false,false,false,false,true,true,
	| false,false,false,false,false,false,true,true,true,
	| false,false,false,true,true,true,true,true,true,
	| false,false,false,true,true,true,false,false,false,
	| false,false,false,false,false,false,true,true,true, |];

nPrecs = 58;
pred = [1,1,1,2,2,2,3,4,4,5,5,6,7,7,7,8,8,9,9,9,10,10,10,11,11,11,12,12,12,13,13,13,14,14,15,15,16,17,18,18,19,19,19,20,21,21,22,23,23,24,24,25,26,27,28,29,30,31];
succ = [2,3,4,10,5,8,15,10,14,6,16,7,9,11,12,18,23,18,27,29,26,29,30,21,13,26,25,19,22,17,28,23,21,15,19,16,17,22,25,20,27,20,23,28,31,24,24,31,24,29,30,26,28,30,31,32,32,32];

nUnrels = 194;
unpred = [2,2,2,2,3,3,3,3,3,3,3,3,3,3,3,3,3,3,3,4,4,4,4,4,4,4,4,4,4,5,5,5,5,6,6,6,6,6,7,7,7,7,7,8,8,8,8,8,8,8,8,8,8,8,8,8,9,9,9,9,9,9,9,9,9,9,9,9,9,10,10,10,10,10,10,10,10,10,10,10,10,10,10,10,10,11,11,11,11,11,11,11,11,11,12,12,12,12,12,12,12,13,13,13,13,13,13,13,13,13,13,14,14,14,15,15,15,15,16,16,16,16,16,16,16,16,16,16,17,17,17,17,17,17,17,17,17,17,18,18,18,18,18,18,18,18,19,19,19,19,20,20,20,20,20,20,20,20,20,21,21,21,21,21,21,22,22,22,22,22,22,23,23,23,23,24,24,24,24,24,25,25,25,26,26,26,27,27,27,28,28,29,29,30];
unsucc = [3,4,14,15,4,5,6,7,8,9,10,11,12,13,14,18,21,25,26,5,6,7,8,9,11,12,13,18,25,8,10,14,15,8,10,14,15,16,8,10,14,15,16,9,10,11,12,13,14,15,16,17,19,21,22,27,10,11,12,13,14,15,16,17,19,21,22,23,24,11,12,13,14,15,16,17,18,19,20,21,22,23,24,25,27,12,14,15,16,18,19,20,25,27,13,14,15,16,17,18,21,14,15,16,18,19,20,21,25,26,27,18,25,26,18,21,25,26,18,19,20,21,23,25,26,27,28,31,18,19,20,21,23,25,26,27,28,31,19,21,22,23,24,27,29,30,21,22,25,26,21,22,23,24,25,26,27,29,30,22,23,25,26,27,28,23,25,26,27,28,31,25,26,27,28,25,26,27,28,31,27,29,30,27,29,30,28,29,31,29,30,30,31,31];

USEFUL_RES = [{},
	{1,2,6,9},
	{1,2,4,6,7,8,9,10,12,13,14,15},
	{1,2,4,6,8,9,12,13,15},
	{3,4,5,7,8,9,10,11,12,13,14,15},
	{3,5,7,9,10,13,14},
	{1,2,4,6,8,9,11,12,13,15},
	{1,2,6,9},
	{1,2,6,9},
	{1,2,3,4,5,6,7,8,9,10,11,12,13,14,15},
	{1,2,3,4,5,6,7,8,9,10,11,12,13,14,15},
	{3,5,7,10,13,14},
	{3,4,5,7,8,9,10,12,13,14,15},
	{1,2,6,9},
	{3,4,5,7,8,9,10,11,12,13,14,15},
	{1,2,4,6,8,9,11,12,13,15},
	{1,2,3,4,6,7,8,9,10,12,13,14,15},
	{1,2,6,9},
	{1,2,4,6,7,8,9,10,11,12,13,14,15},
	{4,7,8,9,10,11,12,13,14,15},
	{3,5,7,10,13,14},
	{4,8,9,11,12,13,15},
	{4,8,9,12,13,15},
	{3,4,5,7,8,9,10,11,12,13,14,15},
	{1,2,4,6,8,9,11,12,13,15},
	{3,5,7,10,13,14},
	{4,7,8,9,10,12,13,14,15},
	{1,2,3,6,7,9,10,13,14},
	{1,2,3,4,6,7,8,9,10,11,12,13,14,15},
	{3,4,5,7,8,9,10,11,12,13,14,15},
	{1,2,3,5,6,7,9,10,13,14},
	{}];

POTENTIAL_ACT = [{2,3,4,7,8,9,10,11,14,16,17,18,19,25,28,29,31},
	{2,3,4,7,8,9,10,11,14,16,17,18,19,25,28,29,31},
	{5,6,10,11,12,13,15,17,21,24,26,28,29,30,31},
	{3,4,5,7,10,11,13,15,16,17,19,20,22,23,24,25,27,29,30},
	{5,6,10,11,12,13,15,21,24,26,30,31},
	{2,3,4,7,8,9,10,11,14,16,17,18,19,25,28,29,31},
	{3,5,6,10,11,12,13,15,17,19,20,21,24,26,27,28,29,30,31},
	{3,4,5,7,10,11,13,15,16,17,19,20,22,23,24,25,27,29,30},
	{2,3,4,5,6,7,8,9,10,11,13,14,15,16,17,18,19,20,22,23,24,25,27,28,29,30,31},
	{3,5,6,10,11,12,13,15,17,19,20,21,24,26,27,28,29,30,31},
	{5,7,10,11,15,16,19,20,22,24,25,29,30},
	{3,4,5,7,10,11,13,15,16,17,19,20,22,23,24,25,27,29,30},
	{3,4,5,6,7,10,11,12,13,15,16,17,19,20,21,22,23,24,25,26,27,28,29,30,31},
	{3,5,6,10,11,12,13,15,17,19,20,21,24,26,27,28,29,30,31},
	{3,4,5,7,10,11,13,15,16,17,19,20,22,23,24,25,27,29,30}];
